0
3113
3250
3386
3497
3628
3733
3837
3945
4051
4157
4266
4376
4485
4590
4692
4796
4905
5013
5118
5223
5326
5434
5536
5640
5743
5844
5958
6065
6169
6273
6378
6518
6655
6769
6873
6979
7085
7188
7290
7394
7502
7607
7711
7815
7924
8030
8133
8235
8337
8444
